33 65 71 66 20 32 48 17 91 100 93 
31 63 62 19 11 64 49 46 
95 92 42 15 2 73 21 40 57 87 53 26 
12 29 3 50 68 54 
47 36 45 83 5 61 16 44 38 86 85 99 94 6 96 
72 39 67 23 75 22 41 56 74 4 55 25 24 80 77 
27 69 30 90 10 70 
28 76 79 81 51 9 78 34 35 1 
52 82 7 88 18 8 84 60 89 
59 98 14 43 37 97 13 58 
